NAME : problems/30-tsp/instance-41.tsp
COMMENT : No Comment
TYPE : TSP
DIMENSION: 30
EDGE_WEIGHT_TYPE : EUC_2D
NODE_COORD_SECTION
1 4487 8756 
2 5329 9129 
3 2527 1225 
4 6760 6742 
5 9337 3347 
6 1261 9029 
7 3816 5343 
8 1093 7289 
9 3240 8167 
10 6851 5813 
11 3551 8091 
12 8963 1234 
13 7 6295 
14 6708 6359 
15 2113 8152 
16 1920 6727 
17 7494 2391 
18 2917 6742 
19 5933 9417 
20 1978 1645 
21 4871 8289 
22 217 2789 
23 5259 1250 
24 764 2371 
25 4215 1283 
26 9224 8369 
27 2210 3397 
28 7270 4058 
29 2132 9521 
30 1524 1230 
EOF
